tsp_instances/TSP20/instance51.tsp
NODE_COORD_SECTION
0 2 64
1 26 105
2 75 145
3 35 93
4 198 100
5 133 143
6 134 22
7 87 64
8 21 102
9 161 48
10 157 197
11 173 48
12 74 160
13 86 176
14 102 65
15 176 104
16 101 156
17 156 5
18 84 113
19 2 167
