tsp_instances/TSP20/instance51.opt.tour
TOUR_SECTION
1
4
19
8
15
7
18
10
12
5
16
6
11
17
14
13
3
20
2
9
-1